1530511200
1530525600
1530527400
1530541800
1530597600
1530612000
1530613800
1530622800
1530687600
1530698400
1530700200
1530714600
1530774000
1530784800
1530786600
1530801000
1530856800
1530871200
1530873000
1530882000
1531116000
1531130400
1531132200
1531141200
1531206000
1531216800
1531218600
1531233000
1531288800
1531303200
1531305000
1531319400
1531465200
1531476000
1531477800
1531492200
1531893600
1531908000
1531909800
1531920600
1531980000
1532003400
1532066400
1532080800
1532082600
1532093400
1532325600
1532340000
1532341800
1532356200
1532415600
1532426400
1532428200
1532442600
1532502000
1532512800
1532514600
1532529000
1532588400
1532599200
1532601000
1532615400
1532674800
1532685600
1532687400
1532698200
1532932200
1532944800
1532946600
1532961000
1533016800
1533031200
1533033000
1533047400
